(set-info :smt-lib-version 2.6)
(set-logic ALL)
(set-info :source |
Benchmarks used in the followin paper:
Big proof engines as little proof engines: new results on rewrite-based satisfiability procedure
Alessandro Armando, Maria Paola Bonacina, Silvio Ranise, Stephan Schulz. 
PDPAR'05
http://www.ai.dist.unige.it/pdpar05/


|)
(set-info :category "crafted")
(set-info :status unsat)

(declare-sort Element 0)
(declare-fun a_665 () (Seq Element))
(declare-fun a_667 () (Seq Element))
(declare-fun a_669 () (Seq Element))
(declare-fun a_671 () (Seq Element))
(declare-fun a_673 () (Seq Element))
(declare-fun a_675 () (Seq Element))
(declare-fun a_677 () (Seq Element))
(declare-fun a_679 () (Seq Element))
(declare-fun a_681 () (Seq Element))
(declare-fun a_683 () (Seq Element))
(declare-fun a_685 () (Seq Element))
(declare-fun a_687 () (Seq Element))
(declare-fun a_689 () (Seq Element))
(declare-fun a_691 () (Seq Element))
(declare-fun a_693 () (Seq Element))
(declare-fun a_695 () (Seq Element))
(declare-fun a_697 () (Seq Element))
(declare-fun a_699 () (Seq Element))
(declare-fun a_700 () (Seq Element))
(declare-fun a_701 () (Seq Element))
(declare-fun a_703 () (Seq Element))
(declare-fun a_705 () (Seq Element))
(declare-fun a_707 () (Seq Element))
(declare-fun a_709 () (Seq Element))
(declare-fun a_711 () (Seq Element))
(declare-fun a_713 () (Seq Element))
(declare-fun a_715 () (Seq Element))
(declare-fun a_717 () (Seq Element))
(declare-fun a_719 () (Seq Element))
(declare-fun a_721 () (Seq Element))
(declare-fun a_723 () (Seq Element))
(declare-fun a_725 () (Seq Element))
(declare-fun a_727 () (Seq Element))
(declare-fun a_729 () (Seq Element))
(declare-fun a_731 () (Seq Element))
(declare-fun a_733 () (Seq Element))
(declare-fun e_664 () Element)
(declare-fun e_666 () Element)
(declare-fun e_668 () Element)
(declare-fun e_670 () Element)
(declare-fun e_672 () Element)
(declare-fun e_674 () Element)
(declare-fun e_676 () Element)
(declare-fun e_678 () Element)
(declare-fun e_680 () Element)
(declare-fun e_682 () Element)
(declare-fun e_684 () Element)
(declare-fun e_686 () Element)
(declare-fun e_688 () Element)
(declare-fun e_690 () Element)
(declare-fun e_692 () Element)
(declare-fun e_694 () Element)
(declare-fun e_696 () Element)
(declare-fun e_698 () Element)
(declare-fun e_702 () Element)
(declare-fun e_704 () Element)
(declare-fun e_706 () Element)
(declare-fun e_708 () Element)
(declare-fun e_710 () Element)
(declare-fun e_712 () Element)
(declare-fun e_714 () Element)
(declare-fun e_716 () Element)
(declare-fun e_718 () Element)
(declare-fun e_720 () Element)
(declare-fun e_722 () Element)
(declare-fun e_724 () Element)
(declare-fun e_726 () Element)
(declare-fun e_728 () Element)
(declare-fun e_730 () Element)
(declare-fun e_732 () Element)
(declare-fun a1 () (Seq Element))
(declare-fun i0 () Int)
(declare-fun i1 () Int)
(declare-fun i2 () Int)
(declare-fun i3 () Int)
(declare-fun i4 () Int)
(declare-fun i5 () Int)
(declare-fun i6 () Int)
(declare-fun i7 () Int)
(declare-fun i8 () Int)
(assert (= a_665 (seq.update a1 i4 (seq.unit e_664))))
(assert (= a_667 (seq.update a_665 i0 (seq.unit e_666))))
(assert (= a_669 (seq.update a_667 i5 (seq.unit e_668))))
(assert (= a_671 (seq.update a_669 i2 (seq.unit e_670))))
(assert (= a_673 (seq.update a_671 i4 (seq.unit e_672))))
(assert (= a_675 (seq.update a_673 i2 (seq.unit e_674))))
(assert (= a_677 (seq.update a_675 i7 (seq.unit e_676))))
(assert (= a_679 (seq.update a_677 i2 (seq.unit e_678))))
(assert (= a_681 (seq.update a_679 i8 (seq.unit e_680))))
(assert (= a_683 (seq.update a_681 i0 (seq.unit e_682))))
(assert (= a_685 (seq.update a_683 i3 (seq.unit e_684))))
(assert (= a_687 (seq.update a_685 i6 (seq.unit e_686))))
(assert (= a_689 (seq.update a_687 i4 (seq.unit e_688))))
(assert (= a_691 (seq.update a_689 i1 (seq.unit e_690))))
(assert (= a_693 (seq.update a_691 i4 (seq.unit e_692))))
(assert (= a_695 (seq.update a_693 i2 (seq.unit e_694))))
(assert (= a_697 (seq.update a_695 i7 (seq.unit e_696))))
(assert (= a_699 (seq.update a_697 i0 (seq.unit e_698))))
(assert (= a_700 (seq.update a1 i0 (seq.unit e_666))))
(assert (= a_701 (seq.update a_700 i4 (seq.unit e_664))))
(assert (= a_703 (seq.update a_701 i5 (seq.unit e_702))))
(assert (= a_705 (seq.update a_703 i2 (seq.unit e_704))))
(assert (= a_707 (seq.update a_705 i4 (seq.unit e_706))))
(assert (= a_709 (seq.update a_707 i2 (seq.unit e_708))))
(assert (= a_711 (seq.update a_709 i7 (seq.unit e_710))))
(assert (= a_713 (seq.update a_711 i2 (seq.unit e_712))))
(assert (= a_715 (seq.update a_713 i8 (seq.unit e_714))))
(assert (= a_717 (seq.update a_715 i0 (seq.unit e_716))))
(assert (= a_719 (seq.update a_717 i3 (seq.unit e_718))))
(assert (= a_721 (seq.update a_719 i6 (seq.unit e_720))))
(assert (= a_723 (seq.update a_721 i1 (seq.unit e_722))))
(assert (= a_725 (seq.update a_723 i4 (seq.unit e_724))))
(assert (= a_727 (seq.update a_725 i4 (seq.unit e_726))))
(assert (= a_729 (seq.update a_727 i2 (seq.unit e_728))))
(assert (= a_731 (seq.update a_729 i0 (seq.unit e_730))))
(assert (= a_733 (seq.update a_731 i7 (seq.unit e_732))))
(assert (= e_664 (seq.nth a1 i0)))
(assert (= e_666 (seq.nth a1 i4)))
(assert (= e_668 (seq.nth a_667 i2)))
(assert (= e_670 (seq.nth a_667 i5)))
(assert (= e_672 (seq.nth a_671 i2)))
(assert (= e_674 (seq.nth a_671 i4)))
(assert (= e_676 (seq.nth a_675 i2)))
(assert (= e_678 (seq.nth a_675 i7)))
(assert (= e_680 (seq.nth a_679 i0)))
(assert (= e_682 (seq.nth a_679 i8)))
(assert (= e_684 (seq.nth a_683 i6)))
(assert (= e_686 (seq.nth a_683 i3)))
(assert (= e_688 (seq.nth a_687 i1)))
(assert (= e_690 (seq.nth a_687 i4)))
(assert (= e_692 (seq.nth a_691 i2)))
(assert (= e_694 (seq.nth a_691 i4)))
(assert (= e_696 (seq.nth a_695 i0)))
(assert (= e_698 (seq.nth a_695 i7)))
(assert (= e_702 (seq.nth a_701 i2)))
(assert (= e_704 (seq.nth a_701 i5)))
(assert (= e_706 (seq.nth a_705 i2)))
(assert (= e_708 (seq.nth a_705 i4)))
(assert (= e_710 (seq.nth a_709 i2)))
(assert (= e_712 (seq.nth a_709 i7)))
(assert (= e_714 (seq.nth a_713 i0)))
(assert (= e_716 (seq.nth a_713 i8)))
(assert (= e_718 (seq.nth a_717 i6)))
(assert (= e_720 (seq.nth a_717 i3)))
(assert (= e_722 (seq.nth a_721 i4)))
(assert (= e_724 (seq.nth a_721 i1)))
(assert (= e_726 (seq.nth a_725 i2)))
(assert (= e_728 (seq.nth a_725 i4)))
(assert (= e_730 (seq.nth a_729 i7)))
(assert (= e_732 (seq.nth a_729 i0)))
(assert (not (= a_699 a_733)))
(check-sat)
(exit)
